644,169
448,173
575,352
654,353
663,463
718,643
620,791
681,646
871,596
1101,406
1125,336
1155,481
753,458
227,637
196,563
326,350
385,110
464,-21
735,512
751,503
847,919
956,681
1093,705
999,724
1108,267
1028,229
921,528
548,474
207,331
342,67
300,25
625,51
524,-79
639,140
830,112
